94 48
10 96
13 200
15 9
87 21
21 128
50 31
14 190
56 2
33 102
69 2
49 48
6 16
6 183
66 9
21 104
20 140
12 140
61 77
49 99
78 26
33 52
31 143
22 60
13 196
31 31
4 138
7 17
26 11
61 95
9 3
2 147
33 19
69 36
88 24
59 56
37 58
32 54
3 174
81 3
24 46
3 114
18 99
39 61
33 65
19 24
34 24
7 134
7 138
17 18
